50

97 13 294
95 14 415
92 3 298
91 21 434
90 12 314
90 13 286
86 26 366
85 7 404
85 22 360
82 7 358
82 5 250
81 14 280
80 18 419
79 21 400
78 13 265
76 12 306
71 4 388
70 11 312
69 12 403
67 11 368
63 3 248
63 19 356
63 4 334
62 2 415
58 3 437
58 4 310
56 14 327
55 16 326
54 6 281
53 1 440
52 10 413
51 3 385
51 2 357
48 11 448
47 4 192
46 13 436
44 12 146
44 10 209
42 10 426
42 11 267
41 11 166
40 11 445
39 10 246
39 3 432
37 10 392
35 2 190
34 7 301
32 5 161
31 1 245
31 3 391
